Minimize
  - 35 y_0 - 45 y_1 - 26 y_2 - 23 y_3 - 16 y_4 - 33 y_5 - 23 y_7 - 28 y_8
   - 47 y_9 + 59 x_0_3 + 45 x_0_4 + 69 x_0_6 + 34 x_0_9 + 77 x_1_5
   + 90 x_1_6 + 53 x_2_6 + 29 x_2_8 + 93 x_3_7 + 29 x_4_8 + 77 x_4_9
   + 29 x_5_9 + 55 x_6_8 + 112 x_7_9 + 112 x_7_9 + 112 x_7_9 + 112 x_7_9
   + 112 x_7_9 + 112 x_7_9 + 112 x_7_9 + 112 x_7_9 + 112 x_7_9 + 112 x_7_9
   + 112 x_7_9 + 112 x_7_9 + 112 x_7_9 + 112 x_7_9 + 112 x_7_9 + 112 x_7_9
   + 112 x_7_9 + 112 x_7_9 + 112 x_7_9 + 112 x_7_9 + 112 x_7_9 + 112 x_7_9
   + 112 x_7_9 + 112 x_7_9 + 112 x_7_9 + 112 x_7_9 + 112 x_7_9 + 112 x_7_9
   + 112 x_7_9 + 112 x_7_9 + 112 x_7_9 + 112 x_7_9 + 112 x_7_9 + 112 x_7_9
   + 112 x_7_9 + 112 x_7_9 + 112 x_7_9 + 112 x_7_9 + 112 x_7_9 + 112 x_7_9
   + 112 x_7_9 + 112 x_7_9 + 112 x_7_9 + 112 x_7_9 + 112 x_7_9 + 112 x_7_9
   + 112 x_7_9 + 112 x_7_9 + 112 x_7_9 + 112 x_7_9 + 112 x_7_9 + 112 x_7_9
   + 112 x_7_9 + 112 x_7_9 + 112 x_7_9 + 112 x_7_9 + 112 x_7_9 + 112 x_7_9
   + 112 x_7_9 + 112 x_7_9 + 112 x_7_9 + 112 x_7_9 + 112 x_7_9 + 112 x_7_9
   + 112 x_7_9 + 112 x_7_9 + 112 x_7_9 + 112 x_7_9 + 112 x_7_9 + 112 x_7_9
   + 112 x_7_9 + 112 x_7_9 + 112 x_7_9 + 112 x_7_9 + 112 x_7_9 + 112 x_7_9
   + 112 x_7_9 + 112 x_7_9 + 112 x_7_9 + 112 x_7_9 + 112 x_7_9 + 112 x_7_9
   + 112 x_7_9 + 112 x_7_9 + 112 x_7_9 + 112 x_7_9 + 112 x_7_9 + 112 x_7_9
   + 112 x_7_9 + 112 x_7_9 + 112 x_7_9 + 112 x_7_9 + 112 x_7_9 + 112 x_7_9
   + 112 x_7_9 + 112 x_7_9 + 112 x_7_9 + 112 x_7_9 + 112 x_7_9 + 112 x_7_9
   + 112 x_7_9 + 112 x_7_9 + 112 x_7_9 + 112 x_7_9 + 112 x_7_9 + 112 x_7_9
   + 112 x_7_9 + 112 x_7_9 + 112 x_7_9 + 112 x_7_9 + 112 x_7_9 + 112 x_7_9
   + 112 x_7_9 + 112 x_7_9 + 112 x_7_9 + 112 x_7_9 + 112 x_7_9 + 112 x_7_9
   + 112 x_7_9 + 112 x_7_9 + 112 x_7_9 + 112 x_7_9 + 112 x_7_9 + 112 x_7_9
   + 112 x_7_9 + 112 x_7_9 + 112 x_7_9 + 112 x_7_9 + 276 Constant
Subject To
 c_0: y_1 = 1
 c_1_0: y_0 >= 1
 c_1_1: y_1 >= 1
 c_1_2: y_2 >= 1
 c_1_3: y_3 >= 1
 c_1_4: y_4 >= 1
 c_1_5: y_5 >= 1
 c_1_6: y_6 >= 1
 c_1_7: y_7 >= 1
 c_1_8: y_8 >= 1
 c_1_9: y_9 >= 1
 c_2_0: - 2 y_0 + x_0_3 + x_0_4 + x_0_6 + x_0_9 = 0
 c_2_1: - 2 y_1 + x_1_5 + x_1_6 = 0
 c_2_2: - 2 y_2 + x_2_6 + x_2_8 = 0
 c_2_3: - 2 y_3 + x_0_3 + x_3_7 = 0
 c_2_4: - 2 y_4 + x_0_4 + x_4_8 + x_4_9 = 0
 c_2_5: - 2 y_5 + x_1_5 + x_5_9 = 0
 c_2_6: - 2 y_6 + x_0_6 + x_1_6 + x_2_6 + x_6_8 = 0
 c_2_7: - 2 y_7 + x_3_7 + 128 x_7_9 = 0
 c_2_8: - 2 y_8 + x_2_8 + x_4_8 + x_6_8 = 0
 c_2_9: - 2 y_9 + x_0_9 + x_4_9 + x_5_9 + 128 x_7_9 = 0
Bounds
 Constant = 1
Binaries
 y_0 y_1 y_2 y_3 y_4 y_5 y_6 y_7 y_8 y_9 x_0_3 x_0_4 x_0_6 x_0_9 x_1_5
 x_1_6 x_2_6 x_2_8 x_3_7 x_4_8 x_4_9 x_5_9 x_6_8 x_7_9 x_7_9 x_7_9 x_7_9
 x_7_9 x_7_9 x_7_9 x_7_9 x_7_9 x_7_9 x_7_9 x_7_9 x_7_9 x_7_9 x_7_9 x_7_9
 x_7_9 x_7_9 x_7_9 x_7_9 x_7_9 x_7_9 x_7_9 x_7_9 x_7_9 x_7_9 x_7_9 x_7_9
 x_7_9 x_7_9 x_7_9 x_7_9 x_7_9 x_7_9 x_7_9 x_7_9 x_7_9 x_7_9 x_7_9 x_7_9
 x_7_9 x_7_9 x_7_9 x_7_9 x_7_9 x_7_9 x_7_9 x_7_9 x_7_9 x_7_9 x_7_9 x_7_9
 x_7_9 x_7_9 x_7_9 x_7_9 x_7_9 x_7_9 x_7_9 x_7_9 x_7_9 x_7_9 x_7_9 x_7_9
 x_7_9 x_7_9 x_7_9 x_7_9 x_7_9 x_7_9 x_7_9 x_7_9 x_7_9 x_7_9 x_7_9 x_7_9
 x_7_9 x_7_9 x_7_9 x_7_9 x_7_9 x_7_9 x_7_9 x_7_9 x_7_9 x_7_9 x_7_9 x_7_9
 x_7_9 x_7_9 x_7_9 x_7_9 x_7_9 x_7_9 x_7_9 x_7_9 x_7_9 x_7_9 x_7_9 x_7_9
 x_7_9 x_7_9 x_7_9 x_7_9 x_7_9 x_7_9 x_7_9 x_7_9 x_7_9 x_7_9 x_7_9 x_7_9
 x_7_9 x_7_9 x_7_9 x_7_9 x_7_9 x_7_9 x_7_9 x_7_9 x_7_9 x_7_9 x_7_9 x_7_9
 x_7_9 x_7_9 x_7_9 x_7_9
End
